(set-info :smt-lib-version 2.6)
(set-logic QF_SLIA)
(set-info :source |
Generated by: Dmitry Blotsky1, Federico Mora, Murphy Berzish, Yunhui Zheng, Ifaz Kabir, Vijay Ganesh, Zhengyang Lu
Generated on: 2018-01-24
Generator: StringFuzz
Application: Evaluate string solvers
Target solver: Z3str3, CVC4, Z3str2, Norn
Publications: Blotsky, D., Mora, F., Berzish, M., Zheng, Y., Kabir, I., & Ganesh, V. (2018). Stringfuzz: A fuzzer for string solvers. In CAV 2018.
Description: new instance generated by StringFuzz, a modular string and regex fuzzer
|)
(set-info :license "https://creativecommons.org/licenses/by/4.0/")
(set-info :category "random")
(set-info :status unknown)

(declare-fun var0 () String)
(assert (str.in_re var0 (re.++ (re.union (re.* (str.to_re "000")) (re.+ (str.to_re "11"))) (re.++ (re.union (re.+ (str.to_re "22")) (re.union (str.to_re "3") (str.to_re "4"))) (re.++ (re.* (re.+ (str.to_re "5"))) (re.++ (re.+ (re.+ (str.to_re "66"))) (re.++ (re.* (re.+ (str.to_re "777"))) (re.++ (re.+ (re.* (str.to_re "88"))) (re.++ (re.* (re.* (str.to_re "99"))) (re.++ (re.union (re.union (str.to_re "aaa") (str.to_re "bbb")) (re.union (str.to_re "ccc") (str.to_re "d"))) (re.++ (re.union (re.union (str.to_re "eee") (str.to_re "fff")) (re.union (str.to_re "gg") (str.to_re "hh"))) (re.++ (re.* (re.union (str.to_re "ii") (str.to_re "j"))) (re.++ (re.* (re.+ (str.to_re "k"))) (re.++ (re.+ (re.* (str.to_re "ll"))) (re.++ (re.* (re.+ (str.to_re "m"))) (re.++ (re.union (re.* (str.to_re "nn")) (re.+ (str.to_re "o"))) (re.++ (re.union (re.union (str.to_re "pp") (str.to_re "qq")) (re.+ (str.to_re "rrr"))) (re.++ (re.* (re.* (str.to_re "sss"))) (re.++ (re.* (re.union (str.to_re "tt") (str.to_re "uuu"))) (re.++ (re.union (re.* (str.to_re "vv")) (re.+ (str.to_re "ww"))) (re.++ (re.* (re.+ (str.to_re "x"))) (re.++ (re.+ (re.* (str.to_re "y"))) (re.++ (re.+ (re.* (str.to_re "zz"))) (re.++ (re.* (re.+ (str.to_re "AA"))) (re.++ (re.union (re.union (str.to_re "BB") (str.to_re "C")) (re.* (str.to_re "DD"))) (re.++ (re.* (re.union (str.to_re "E") (str.to_re "FF"))) (re.++ (re.union (re.* (str.to_re "G")) (re.* (str.to_re "HHH"))) (re.++ (re.* (re.union (str.to_re "I") (str.to_re "J"))) (re.++ (re.* (re.+ (str.to_re "KK"))) (re.++ (re.+ (re.union (str.to_re "LLL") (str.to_re "MM"))) (re.++ (re.union (re.union (str.to_re "N") (str.to_re "OOO")) (re.* (str.to_re "PPP"))) (re.++ (re.* (re.* (str.to_re "QQQ"))) (re.++ (re.+ (re.union (str.to_re "RR") (str.to_re "S"))) (re.++ (re.* (re.+ (str.to_re "TT"))) (re.++ (re.* (re.* (str.to_re "UUU"))) (re.++ (re.union (re.union (str.to_re "VV") (str.to_re "WWW")) (re.* (str.to_re "X"))) (re.++ (re.+ (re.* (str.to_re "YYY"))) (re.++ (re.+ (re.* (str.to_re "Z"))) (re.++ (re.* (re.+ (str.to_re "!!!"))) (re.++ (re.+ (re.+ (str.to_re """"""""))) (re.++ (re.+ (re.union (str.to_re "#") (str.to_re "$"))) (re.++ (re.union (re.* (str.to_re "%%")) (re.+ (str.to_re "&&"))) (re.+ (re.+ (str.to_re "''")))))))))))))))))))))))))))))))))))))))))))))
(check-sat)
(exit)
